(set-logic HORN)
(declare-datatypes ((Nat_278 0)) (((Z_895 ) (S_245 (unS_314 Nat_278)))))
(declare-fun diseqNat_278 (Nat_278 Nat_278) Bool)
(declare-fun unS_315 (Nat_278 Nat_278) Bool)
(declare-fun isZ_230 (Nat_278) Bool)
(declare-fun isS_230 (Nat_278) Bool)
(assert (forall ((x_22877 Nat_278))
	(unS_315 x_22877 (S_245 x_22877))))
(assert (isZ_230 Z_895))
(assert (forall ((x_22879 Nat_278))
	(isS_230 (S_245 x_22879))))
(assert (forall ((x_22880 Nat_278))
	(diseqNat_278 Z_895 (S_245 x_22880))))
(assert (forall ((x_22881 Nat_278))
	(diseqNat_278 (S_245 x_22881) Z_895)))
(assert (forall ((x_22882 Nat_278) (x_22883 Nat_278))
	(=> (diseqNat_278 x_22882 x_22883)
	    (diseqNat_278 (S_245 x_22882) (S_245 x_22883)))))
(declare-fun add_167 (Nat_278 Nat_278 Nat_278) Bool)
(declare-fun minus_161 (Nat_278 Nat_278 Nat_278) Bool)
(declare-fun le_157 (Nat_278 Nat_278) Bool)
(declare-fun ge_157 (Nat_278 Nat_278) Bool)
(declare-fun lt_163 (Nat_278 Nat_278) Bool)
(declare-fun gt_158 (Nat_278 Nat_278) Bool)
(declare-fun mult_157 (Nat_278 Nat_278 Nat_278) Bool)
(declare-fun div_157 (Nat_278 Nat_278 Nat_278) Bool)
(declare-fun mod_157 (Nat_278 Nat_278 Nat_278) Bool)
(assert (forall ((y_909 Nat_278))
	(add_167 y_909 Z_895 y_909)))
(assert (forall ((x_22853 Nat_278) (y_909 Nat_278) (r_187 Nat_278))
	(=> (add_167 r_187 x_22853 y_909)
	    (add_167 (S_245 r_187) (S_245 x_22853) y_909))))
(assert (forall ((y_909 Nat_278))
	(minus_161 Z_895 Z_895 y_909)))
(assert (forall ((x_22853 Nat_278) (y_909 Nat_278) (r_187 Nat_278))
	(=> (minus_161 r_187 x_22853 y_909)
	    (minus_161 (S_245 r_187) (S_245 x_22853) y_909))))
(assert (forall ((y_909 Nat_278))
	(le_157 Z_895 y_909)))
(assert (forall ((x_22853 Nat_278) (y_909 Nat_278))
	(=> (le_157 x_22853 y_909)
	    (le_157 (S_245 x_22853) (S_245 y_909)))))
(assert (forall ((y_909 Nat_278))
	(ge_157 y_909 Z_895)))
(assert (forall ((x_22853 Nat_278) (y_909 Nat_278))
	(=> (ge_157 x_22853 y_909)
	    (ge_157 (S_245 x_22853) (S_245 y_909)))))
(assert (forall ((y_909 Nat_278))
	(lt_163 Z_895 (S_245 y_909))))
(assert (forall ((x_22853 Nat_278) (y_909 Nat_278))
	(=> (lt_163 x_22853 y_909)
	    (lt_163 (S_245 x_22853) (S_245 y_909)))))
(assert (forall ((y_909 Nat_278))
	(gt_158 (S_245 y_909) Z_895)))
(assert (forall ((x_22853 Nat_278) (y_909 Nat_278))
	(=> (gt_158 x_22853 y_909)
	    (gt_158 (S_245 x_22853) (S_245 y_909)))))
(assert (forall ((y_909 Nat_278))
	(mult_157 Z_895 Z_895 y_909)))
(assert (forall ((x_22853 Nat_278) (y_909 Nat_278) (r_187 Nat_278) (z_896 Nat_278))
	(=>	(and (mult_157 r_187 x_22853 y_909)
			(add_167 z_896 r_187 y_909))
		(mult_157 z_896 (S_245 x_22853) y_909))))
(assert (forall ((x_22853 Nat_278) (y_909 Nat_278))
	(=> (lt_163 x_22853 y_909)
	    (div_157 Z_895 x_22853 y_909))))
(assert (forall ((x_22853 Nat_278) (y_909 Nat_278) (r_187 Nat_278) (z_896 Nat_278))
	(=>	(and (ge_157 x_22853 y_909)
			(minus_161 z_896 x_22853 y_909)
			(div_157 r_187 z_896 y_909))
		(div_157 (S_245 r_187) x_22853 y_909))))
(assert (forall ((x_22853 Nat_278) (y_909 Nat_278))
	(=> (lt_163 x_22853 y_909)
	    (mod_157 x_22853 x_22853 y_909))))
(assert (forall ((x_22853 Nat_278) (y_909 Nat_278) (r_187 Nat_278) (z_896 Nat_278))
	(=>	(and (ge_157 x_22853 y_909)
			(minus_161 z_896 x_22853 y_909)
			(mod_157 r_187 z_896 y_909))
		(mod_157 r_187 x_22853 y_909))))
(declare-datatypes ((list_113 0)) (((nil_125 ) (cons_113 (head_226 Nat_278) (tail_226 list_113)))))
(declare-fun diseqlist_113 (list_113 list_113) Bool)
(declare-fun head_227 (Nat_278 list_113) Bool)
(declare-fun tail_227 (list_113 list_113) Bool)
(declare-fun isnil_125 (list_113) Bool)
(declare-fun iscons_113 (list_113) Bool)
(assert (forall ((x_22855 Nat_278) (x_22856 list_113))
	(head_227 x_22855 (cons_113 x_22855 x_22856))))
(assert (forall ((x_22855 Nat_278) (x_22856 list_113))
	(tail_227 x_22856 (cons_113 x_22855 x_22856))))
(assert (isnil_125 nil_125))
(assert (forall ((x_22858 Nat_278) (x_22859 list_113))
	(iscons_113 (cons_113 x_22858 x_22859))))
(assert (forall ((x_22860 Nat_278) (x_22861 list_113))
	(diseqlist_113 nil_125 (cons_113 x_22860 x_22861))))
(assert (forall ((x_22862 Nat_278) (x_22863 list_113))
	(diseqlist_113 (cons_113 x_22862 x_22863) nil_125)))
(assert (forall ((x_22864 Nat_278) (x_22865 list_113) (x_22866 Nat_278) (x_22867 list_113))
	(=> (diseqNat_278 x_22864 x_22866)
	    (diseqlist_113 (cons_113 x_22864 x_22865) (cons_113 x_22866 x_22867)))))
(assert (forall ((x_22864 Nat_278) (x_22865 list_113) (x_22866 Nat_278) (x_22867 list_113))
	(=> (diseqlist_113 x_22865 x_22867)
	    (diseqlist_113 (cons_113 x_22864 x_22865) (cons_113 x_22866 x_22867)))))
(declare-datatypes ((Nat_277 0)) (((zero_48 ) (succ_47 (p_134 Nat_277)))))
(declare-fun diseqNat_277 (Nat_277 Nat_277) Bool)
(declare-fun p_135 (Nat_277 Nat_277) Bool)
(declare-fun iszero_47 (Nat_277) Bool)
(declare-fun issucc_47 (Nat_277) Bool)
(assert (forall ((x_22869 Nat_277))
	(p_135 x_22869 (succ_47 x_22869))))
(assert (iszero_47 zero_48))
(assert (forall ((x_22871 Nat_277))
	(issucc_47 (succ_47 x_22871))))
(assert (forall ((x_22872 Nat_277))
	(diseqNat_277 zero_48 (succ_47 x_22872))))
(assert (forall ((x_22873 Nat_277))
	(diseqNat_277 (succ_47 x_22873) zero_48)))
(assert (forall ((x_22874 Nat_277) (x_22875 Nat_277))
	(=> (diseqNat_277 x_22874 x_22875)
	    (diseqNat_277 (succ_47 x_22874) (succ_47 x_22875)))))
(declare-fun snoc_0 (list_113 Nat_278 list_113) Bool)
(assert (forall ((x_22829 list_113) (z_890 Nat_278) (ys_85 list_113) (x_22820 Nat_278))
	(=> (snoc_0 x_22829 x_22820 ys_85)
	    (snoc_0 (cons_113 z_890 x_22829) x_22820 (cons_113 z_890 ys_85)))))
(assert (forall ((x_22820 Nat_278))
	(snoc_0 (cons_113 x_22820 nil_125) x_22820 nil_125)))
(declare-fun rotate_0 (list_113 Nat_277 list_113) Bool)
(assert (forall ((x_22831 list_113) (x_22832 list_113) (z_892 Nat_278) (xs_281 list_113) (z_891 Nat_277))
	(=>	(and (snoc_0 x_22832 z_892 xs_281)
			(rotate_0 x_22831 z_891 x_22832))
		(rotate_0 x_22831 (succ_47 z_891) (cons_113 z_892 xs_281)))))
(assert (forall ((z_891 Nat_277))
	(rotate_0 nil_125 (succ_47 z_891) nil_125)))
(assert (forall ((x_22835 list_113))
	(rotate_0 x_22835 zero_48 x_22835)))
(declare-fun plus_46 (Nat_277 Nat_277 Nat_277) Bool)
(assert (forall ((x_22837 Nat_277) (z_893 Nat_277) (y_905 Nat_277))
	(=> (plus_46 x_22837 z_893 y_905)
	    (plus_46 (succ_47 x_22837) (succ_47 z_893) y_905))))
(assert (forall ((x_22838 Nat_277))
	(plus_46 x_22838 zero_48 x_22838)))
(declare-fun length_11 (Nat_277 list_113) Bool)
(assert (forall ((x_22839 Nat_277) (x_22840 Nat_277) (y_906 Nat_278) (l_13 list_113))
	(=>	(and (length_11 x_22840 l_13)
			(plus_46 x_22839 (succ_47 zero_48) x_22840))
		(length_11 x_22839 (cons_113 y_906 l_13)))))
(assert (length_11 zero_48 nil_125))
(assert (forall ((x_22843 Nat_277) (x_22844 Nat_277) (x_22845 Nat_277) (x_22846 Nat_277) (x_22824 Nat_277) (y_907 Nat_277) (z_894 Nat_277))
	(=>	(and true
			(diseqNat_277 x_22844 x_22846)
			(plus_46 x_22843 y_907 z_894)
			(plus_46 x_22844 x_22824 x_22843)
			(plus_46 x_22845 x_22824 y_907)
			(plus_46 x_22846 x_22845 z_894))
		false)))
(assert (forall ((x_22847 Nat_277) (x_22848 Nat_277) (x_22825 Nat_277) (y_908 Nat_277))
	(=>	(and true
			(diseqNat_277 x_22847 x_22848)
			(plus_46 x_22847 x_22825 y_908)
			(plus_46 x_22848 y_908 x_22825))
		false)))
(assert (forall ((x_22849 Nat_277) (x_22826 Nat_277))
	(=>	(and true
			(diseqNat_277 x_22849 x_22826)
			(plus_46 x_22849 x_22826 zero_48))
		false)))
(assert (forall ((x_22850 Nat_277) (x_22827 Nat_277))
	(=>	(and true
			(diseqNat_277 x_22850 x_22827)
			(plus_46 x_22850 zero_48 x_22827))
		false)))
(assert (forall ((x_22851 Nat_277) (x_22852 list_113) (xs_282 list_113))
	(=>	(and true
			(diseqlist_113 x_22852 xs_282)
			(length_11 x_22851 xs_282)
			(rotate_0 x_22852 x_22851 xs_282))
		false)))
(check-sat)
